language ESSENCE' 1.0
letting AssignmentMatrix be [[1, 1, 0, 1, 0, 0, 1, 0, 1, 0, 0, 0, 0, 0, 1, 1, 0, 0, 1], 
[0, 0, 1, 0, 0, 0, 0, 1, 0, 1, 0, 0, 1, 1, 0, 0, 0, 1, 0], 
[0, 0, 0, 0, 0, 0, 0, 0, 0, 0, 0, 0, 0, 0, 0, 0, 0, 0, 0], 
[0, 0, 0, 0, 0, 1, 0, 0, 0, 0, 1, 0, 0, 0, 0, 0, 1, 0, 0], 
[0, 0, 0, 0, 0, 0, 0, 0, 0, 0, 0, 1, 0, 0, 0, 0, 0, 0, 1]]
letting OccupancyVector be [1, 1, 1, 1, 0, 1, 1, 1, 1, 1, 1, 1, 1, 1, 1, 1, 1, 1, 1]
letting Price be [116, 116, 116, 116, 0, 210, 116, 116, 116, 116, 210, 210, 116, 116, 116, 116, 210, 138, 420]
letting VMType be [433, 433, 433, 433, 397, 341, 433, 433, 433, 433, 341, 341, 433, 433, 433, 433, 341, 451, 278]
